(set-logic QF_UF)
(declare-fun A0 () Bool)
(declare-fun A3 () Bool)
(declare-fun A4 () Bool)
(declare-fun A6 () Bool)
(declare-fun A7 () Bool)
(declare-fun A8 () Bool)
(declare-fun A9 () Bool)
(declare-fun A10 () Bool)
(declare-fun A11 () Bool)
(declare-fun A12 () Bool)
(declare-fun A13 () Bool)
(declare-fun A14 () Bool)
(declare-fun A15 () Bool)
(declare-fun A16 () Bool)
(declare-fun A17 () Bool)
(declare-fun A18 () Bool)
(declare-fun A19 () Bool)
(declare-fun A21 () Bool)
(declare-fun A22 () Bool)
(declare-fun A23 () Bool)
(declare-fun A24 () Bool)
(assert (let ((.def_0 (not A12))) (let ((.def_1 (and .def_0 A10))) (let ((.def_2 (not A23))) (let ((.def_3 (not A18))) (let ((.def_4 (or .def_3 .def_2))) (let ((.def_5 (= .def_4 .def_1))) (let ((.def_6 (not .def_5))) (let ((.def_7 (not A24))) (let ((.def_8 (= A11 .def_7))) (let ((.def_9 (not .def_8))) (let ((.def_10 (and A16 A21))) (let ((.def_11 (and .def_10 .def_9))) (let ((.def_12 (or .def_11 .def_6))) (let ((.def_13 (not .def_12))) (let ((.def_14 (not A9))) (let ((.def_15 (and .def_14 A22))) (let ((.def_16 (not .def_15))) (let ((.def_17 (not A7))) (let ((.def_18 (and A3 .def_17))) (let ((.def_19 (not .def_18))) (let ((.def_20 (and .def_19 .def_16))) (let ((.def_21 (or .def_7 A15))) (let ((.def_22 (not .def_21))) (let ((.def_23 (and .def_7 A0))) (let ((.def_24 (= .def_23 .def_22))) (let ((.def_25 (= .def_24 .def_20))) (let ((.def_26 (not .def_25))) (let ((.def_27 (or .def_26 .def_13))) (let ((.def_28 (not .def_27))) (let ((.def_29 (not A17))) (let ((.def_30 (not A3))) (let ((.def_31 (or .def_30 .def_29))) (let ((.def_32 (not .def_31))) (let ((.def_33 (not A22))) (let ((.def_34 (or A3 .def_33))) (let ((.def_35 (not .def_34))) (let ((.def_36 (or .def_35 .def_32))) (let ((.def_37 (not A4))) (let ((.def_38 (or A13 .def_37))) (let ((.def_39 (not .def_38))) (let ((.def_40 (not A0))) (let ((.def_41 (and .def_40 A16))) (let ((.def_42 (not .def_41))) (let ((.def_43 (or .def_42 .def_39))) (let ((.def_44 (and .def_43 .def_36))) (let ((.def_45 (not .def_44))) (let ((.def_46 (or A13 .def_40))) (let ((.def_47 (not .def_46))) (let ((.def_48 (not A6))) (let ((.def_49 (not A13))) (let ((.def_50 (or .def_49 .def_48))) (let ((.def_51 (not .def_50))) (let ((.def_52 (or .def_51 .def_47))) (let ((.def_53 (= .def_7 .def_48))) (let ((.def_54 (or .def_3 .def_0))) (let ((.def_55 (and .def_54 .def_53))) (let ((.def_56 (or .def_55 .def_52))) (let ((.def_57 (and .def_56 .def_45))) (let ((.def_58 (not .def_57))) (let ((.def_59 (and .def_58 .def_28))) (let ((.def_60 (not A14))) (let ((.def_61 (or A23 .def_60))) (let ((.def_62 (= .def_49 A24))) (let ((.def_63 (not .def_62))) (let ((.def_64 (and .def_63 .def_61))) (let ((.def_65 (and A13 A23))) (let ((.def_66 (and A23 A21))) (let ((.def_67 (or .def_66 .def_65))) (let ((.def_68 (and .def_67 .def_64))) (let ((.def_69 (= .def_48 A22))) (let ((.def_70 (not A19))) (let ((.def_71 (and A22 .def_70))) (let ((.def_72 (or .def_71 .def_69))) (let ((.def_73 (and A24 A8))) (let ((.def_74 (not .def_73))) (let ((.def_75 (and .def_7 .def_2))) (let ((.def_76 (and .def_75 .def_74))) (let ((.def_77 (not .def_76))) (let ((.def_78 (or .def_77 .def_72))) (let ((.def_79 (not .def_78))) (let ((.def_80 (or .def_79 .def_68))) (let ((.def_81 (not .def_80))) (let ((.def_82 (not A21))) (let ((.def_83 (and .def_82 .def_29))) (let ((.def_84 (not .def_83))) (let ((.def_85 (and .def_48 A14))) (let ((.def_86 (not .def_85))) (let ((.def_87 (and .def_86 .def_84))) (let ((.def_88 (not .def_87))) (let ((.def_89 (= A22 .def_37))) (let ((.def_90 (not .def_89))) (let ((.def_91 (not A16))) (let ((.def_92 (and A10 .def_91))) (let ((.def_93 (and .def_92 .def_90))) (let ((.def_94 (and .def_93 .def_88))) (let ((.def_95 (or .def_0 A6))) (let ((.def_96 (not .def_95))) (let ((.def_97 (not A15))) (let ((.def_98 (and A6 .def_97))) (let ((.def_99 (and .def_98 .def_96))) (let ((.def_100 (not .def_99))) (let ((.def_101 (and A21 .def_48))) (let ((.def_102 (or A3 A3))) (let ((.def_103 (and .def_102 .def_101))) (let ((.def_104 (not .def_103))) (let ((.def_105 (or .def_104 .def_100))) (let ((.def_106 (or .def_105 .def_94))) (let ((.def_107 (and .def_106 .def_81))) (let ((.def_108 (not .def_107))) (let ((.def_109 (or .def_108 .def_59))) .def_109)))))))))))))))))))))))))))))))))))))))))))))))))))))))))))))))))))))))))))))))))))))))))))))))))))))))))))))))
(check-sat)
